c File: data_files/evolved_graphs/g3668.col
c
c Auto generated graph
c
p edge 100 1363
e 1 5
e 1 13
e 1 17
e 1 23
e 1 28
e 1 34
e 1 35
e 1 37
e 1 38
e 1 40
e 1 43
e 1 44
e 1 45
e 1 46
e 1 49
e 1 53
e 1 54
e 1 55
e 1 57
e 1 59
e 1 61
e 1 63
e 1 70
e 1 73
e 1 74
e 1 77
e 1 82
e 1 83
e 1 85
e 1 86
e 1 89
e 1 95
e 1 100
e 2 11
e 2 12
e 2 15
e 2 30
e 2 32
e 2 35
e 2 42
e 2 43
e 2 44
e 2 45
e 2 46
e 2 47
e 2 48
e 2 51
e 2 52
e 2 57
e 2 58
e 2 60
e 2 62
e 2 63
e 2 64
e 2 69
e 2 77
e 2 81
e 2 89
e 2 93
e 3 8
e 3 9
e 3 12
e 3 33
e 3 35
e 3 38
e 3 42
e 3 45
e 3 47
e 3 49
e 3 54
e 3 57
e 3 59
e 3 62
e 3 67
e 3 68
e 3 69
e 3 71
e 3 72
e 3 74
e 3 76
e 3 85
e 4 6
e 4 10
e 4 21
e 4 22
e 4 31
e 4 44
e 4 51
e 4 54
e 4 60
e 4 65
e 4 67
e 4 69
e 4 73
e 4 74
e 4 78
e 4 80
e 4 86
e 4 97
e 5 7
e 5 12
e 5 14
e 5 16
e 5 28
e 5 32
e 5 34
e 5 37
e 5 38
e 5 39
e 5 40
e 5 42
e 5 44
e 5 48
e 5 50
e 5 53
e 5 55
e 5 56
e 5 58
e 5 60
e 5 62
e 5 64
e 5 65
e 5 72
e 5 74
e 5 75
e 5 77
e 5 92
e 6 8
e 6 9
e 6 17
e 6 27
e 6 33
e 6 41
e 6 42
e 6 44
e 6 46
e 6 49
e 6 50
e 6 54
e 6 56
e 6 59
e 6 61
e 6 67
e 6 71
e 6 75
e 6 77
e 6 79
e 6 85
e 6 89
e 6 91
e 6 96
e 7 14
e 7 15
e 7 19
e 7 22
e 7 25
e 7 35
e 7 36
e 7 39
e 7 41
e 7 45
e 7 51
e 7 53
e 7 54
e 7 55
e 7 56
e 7 60
e 7 64
e 7 65
e 7 68
e 7 69
e 7 71
e 7 72
e 7 74
e 7 75
e 7 81
e 7 82
e 7 84
e 7 85
e 7 90
e 7 94
e 7 96
e 7 97
e 8 14
e 8 27
e 8 33
e 8 34
e 8 35
e 8 36
e 8 37
e 8 38
e 8 39
e 8 41
e 8 42
e 8 49
e 8 50
e 8 51
e 8 54
e 8 55
e 8 58
e 8 62
e 8 64
e 8 65
e 8 70
e 8 71
e 8 73
e 8 78
e 8 79
e 8 89
e 8 96
e 9 13
e 9 14
e 9 18
e 9 28
e 9 33
e 9 34
e 9 37
e 9 38
e 9 41
e 9 42
e 9 45
e 9 46
e 9 47
e 9 48
e 9 50
e 9 52
e 9 54
e 9 57
e 9 63
e 9 64
e 9 66
e 9 68
e 9 71
e 9 72
e 9 73
e 9 75
e 9 77
e 9 79
e 9 91
e 9 96
e 10 13
e 10 22
e 10 25
e 10 31
e 10 33
e 10 35
e 10 36
e 10 38
e 10 40
e 10 43
e 10 46
e 10 47
e 10 48
e 10 50
e 10 51
e 10 53
e 10 55
e 10 59
e 10 60
e 10 62
e 10 63
e 10 64
e 10 66
e 10 69
e 10 72
e 10 76
e 10 80
e 10 86
e 10 89
e 11 12
e 11 13
e 11 14
e 11 28
e 11 29
e 11 34
e 11 35
e 11 38
e 11 40
e 11 42
e 11 48
e 11 50
e 11 53
e 11 55
e 11 56
e 11 58
e 11 65
e 11 69
e 11 70
e 11 71
e 11 72
e 11 74
e 11 79
e 11 84
e 12 14
e 12 16
e 12 18
e 12 26
e 12 28
e 12 29
e 12 34
e 12 37
e 12 39
e 12 40
e 12 42
e 12 43
e 12 47
e 12 49
e 12 51
e 12 60
e 12 61
e 12 62
e 12 63
e 12 64
e 12 65
e 12 66
e 12 69
e 12 70
e 12 74
e 12 75
e 12 77
e 12 79
e 12 87
e 12 91
e 12 94
e 12 100
e 13 15
e 13 16
e 13 23
e 13 28
e 13 36
e 13 40
e 13 42
e 13 43
e 13 47
e 13 49
e 13 50
e 13 51
e 13 53
e 13 55
e 13 58
e 13 59
e 13 63
e 13 70
e 13 74
e 13 75
e 13 79
e 13 80
e 13 81
e 13 86
e 13 91
e 13 98
e 14 16
e 14 19
e 14 24
e 14 26
e 14 32
e 14 38
e 14 40
e 14 44
e 14 47
e 14 50
e 14 51
e 14 56
e 14 57
e 14 61
e 14 62
e 14 64
e 14 65
e 14 66
e 14 68
e 14 69
e 14 70
e 14 75
e 14 76
e 14 77
e 14 78
e 14 80
e 14 87
e 14 88
e 14 89
e 14 90
e 14 92
e 14 93
e 14 95
e 15 21
e 15 25
e 15 37
e 15 38
e 15 41
e 15 43
e 15 44
e 15 45
e 15 49
e 15 53
e 15 54
e 15 58
e 15 59
e 15 60
e 15 62
e 15 64
e 15 73
e 15 78
e 15 79
e 15 80
e 15 82
e 15 83
e 15 84
e 15 85
e 15 86
e 15 87
e 15 88
e 15 90
e 15 91
e 15 92
e 15 97
e 16 23
e 16 25
e 16 26
e 16 33
e 16 34
e 16 35
e 16 36
e 16 38
e 16 40
e 16 41
e 16 42
e 16 43
e 16 46
e 16 47
e 16 48
e 16 50
e 16 51
e 16 52
e 16 53
e 16 54
e 16 55
e 16 56
e 16 59
e 16 60
e 16 61
e 16 62
e 16 63
e 16 67
e 16 70
e 16 75
e 16 76
e 16 80
e 16 86
e 16 87
e 16 88
e 16 91
e 16 92
e 17 28
e 17 34
e 17 35
e 17 36
e 17 42
e 17 50
e 17 53
e 17 56
e 17 60
e 17 61
e 17 64
e 17 65
e 17 67
e 17 74
e 17 75
e 17 77
e 17 78
e 17 79
e 17 81
e 17 83
e 17 86
e 17 87
e 17 88
e 17 91
e 17 92
e 18 24
e 18 33
e 18 35
e 18 41
e 18 44
e 18 55
e 18 56
e 18 59
e 18 60
e 18 61
e 18 63
e 18 65
e 18 66
e 18 67
e 18 68
e 18 69
e 18 70
e 18 79
e 18 81
e 18 84
e 18 88
e 18 91
e 18 92
e 19 24
e 19 25
e 19 27
e 19 37
e 19 40
e 19 42
e 19 43
e 19 50
e 19 54
e 19 55
e 19 57
e 19 58
e 19 60
e 19 64
e 19 67
e 19 69
e 19 71
e 19 74
e 19 76
e 19 79
e 19 81
e 19 84
e 19 85
e 19 86
e 19 91
e 19 92
e 20 21
e 20 25
e 20 33
e 20 35
e 20 36
e 20 38
e 20 46
e 20 52
e 20 53
e 20 54
e 20 56
e 20 61
e 20 63
e 20 67
e 20 70
e 20 71
e 20 73
e 20 75
e 20 82
e 20 83
e 20 84
e 20 90
e 20 91
e 21 22
e 21 26
e 21 33
e 21 34
e 21 45
e 21 49
e 21 50
e 21 55
e 21 56
e 21 60
e 21 61
e 21 63
e 21 64
e 21 66
e 21 69
e 21 70
e 21 71
e 21 74
e 21 76
e 21 77
e 21 78
e 21 80
e 21 81
e 21 82
e 21 83
e 21 84
e 21 87
e 21 88
e 21 90
e 21 91
e 22 23
e 22 33
e 22 35
e 22 36
e 22 38
e 22 41
e 22 47
e 22 48
e 22 52
e 22 53
e 22 54
e 22 55
e 22 57
e 22 58
e 22 61
e 22 62
e 22 66
e 22 73
e 22 74
e 22 75
e 22 76
e 22 78
e 22 80
e 22 81
e 22 82
e 22 87
e 22 90
e 22 92
e 22 96
e 22 97
e 23 30
e 23 34
e 23 36
e 23 37
e 23 40
e 23 41
e 23 43
e 23 44
e 23 48
e 23 50
e 23 52
e 23 53
e 23 54
e 23 57
e 23 60
e 23 61
e 23 63
e 23 64
e 23 67
e 23 68
e 23 69
e 23 73
e 23 78
e 23 80
e 23 81
e 23 83
e 23 84
e 23 88
e 23 89
e 23 92
e 24 36
e 24 37
e 24 39
e 24 44
e 24 45
e 24 46
e 24 47
e 24 51
e 24 53
e 24 56
e 24 59
e 24 61
e 24 64
e 24 65
e 24 66
e 24 68
e 24 73
e 24 77
e 24 78
e 24 79
e 24 80
e 24 81
e 24 82
e 24 87
e 24 88
e 24 90
e 24 91
e 25 32
e 25 33
e 25 37
e 25 40
e 25 42
e 25 43
e 25 45
e 25 51
e 25 52
e 25 53
e 25 57
e 25 58
e 25 60
e 25 64
e 25 66
e 25 69
e 25 71
e 25 72
e 25 77
e 25 79
e 25 81
e 25 88
e 25 89
e 25 91
e 25 92
e 26 33
e 26 37
e 26 38
e 26 39
e 26 42
e 26 48
e 26 52
e 26 55
e 26 58
e 26 59
e 26 64
e 26 66
e 26 69
e 26 72
e 26 73
e 26 76
e 26 78
e 26 84
e 26 86
e 26 88
e 26 89
e 26 90
e 26 91
e 27 30
e 27 33
e 27 34
e 27 35
e 27 39
e 27 41
e 27 47
e 27 48
e 27 52
e 27 55
e 27 58
e 27 61
e 27 62
e 27 64
e 27 67
e 27 69
e 27 73
e 27 74
e 27 75
e 27 79
e 27 80
e 27 83
e 27 85
e 27 89
e 27 90
e 27 92
e 28 29
e 28 31
e 28 35
e 28 37
e 28 39
e 28 51
e 28 61
e 28 64
e 28 65
e 28 70
e 28 73
e 28 74
e 28 78
e 28 79
e 28 80
e 28 81
e 28 82
e 28 87
e 28 92
e 28 99
e 29 30
e 29 33
e 29 43
e 29 44
e 29 47
e 29 59
e 29 64
e 29 70
e 29 71
e 29 82
e 29 83
e 29 86
e 29 89
e 29 90
e 30 35
e 30 37
e 30 39
e 30 54
e 30 56
e 30 61
e 30 62
e 30 64
e 30 67
e 30 71
e 30 73
e 30 78
e 30 81
e 30 82
e 30 83
e 30 84
e 30 85
e 30 86
e 30 87
e 30 90
e 30 91
e 30 92
e 31 39
e 31 40
e 31 51
e 31 54
e 31 75
e 31 81
e 31 85
e 31 88
e 31 91
e 31 93
e 32 36
e 32 43
e 32 46
e 32 49
e 32 59
e 32 62
e 32 77
e 32 81
e 32 86
e 32 89
e 32 90
e 32 99
e 33 39
e 33 48
e 33 49
e 33 51
e 33 56
e 33 57
e 33 66
e 33 69
e 33 71
e 33 72
e 33 74
e 33 77
e 33 81
e 33 87
e 33 92
e 34 35
e 34 39
e 34 41
e 34 45
e 34 46
e 34 50
e 34 52
e 34 54
e 34 58
e 34 63
e 34 67
e 34 74
e 34 81
e 34 84
e 34 86
e 34 87
e 34 88
e 34 90
e 34 93
e 35 36
e 35 39
e 35 43
e 35 65
e 35 66
e 35 77
e 35 79
e 35 84
e 35 86
e 35 90
e 35 92
e 36 41
e 36 60
e 36 66
e 36 75
e 36 77
e 36 81
e 36 82
e 36 85
e 36 86
e 36 87
e 36 88
e 36 89
e 36 90
e 36 91
e 36 96
e 37 50
e 37 53
e 37 58
e 37 62
e 37 64
e 37 73
e 37 84
e 37 85
e 37 89
e 37 90
e 38 40
e 38 44
e 38 45
e 38 46
e 38 53
e 38 58
e 38 68
e 38 73
e 38 75
e 38 82
e 38 83
e 38 89
e 38 91
e 38 92
e 39 44
e 39 45
e 39 46
e 39 57
e 39 78
e 39 81
e 39 86
e 39 88
e 39 89
e 39 90
e 40 42
e 40 48
e 40 57
e 40 63
e 40 73
e 40 78
e 40 83
e 40 84
e 40 86
e 40 90
e 40 91
e 40 92
e 40 93
e 41 45
e 41 46
e 41 47
e 41 50
e 41 53
e 41 54
e 41 59
e 41 60
e 41 65
e 41 68
e 41 72
e 41 73
e 41 78
e 41 84
e 41 86
e 41 87
e 41 88
e 41 89
e 41 91
e 42 47
e 42 48
e 42 50
e 42 51
e 42 64
e 42 69
e 42 74
e 42 75
e 42 81
e 42 83
e 42 84
e 42 87
e 42 91
e 42 94
e 43 58
e 43 61
e 43 66
e 43 77
e 43 79
e 43 84
e 43 85
e 43 86
e 43 89
e 43 90
e 43 94
e 43 95
e 44 49
e 44 53
e 44 74
e 44 77
e 44 79
e 44 81
e 44 82
e 44 86
e 44 87
e 44 88
e 44 89
e 44 97
e 44 99
e 45 57
e 45 61
e 45 70
e 45 71
e 45 79
e 45 81
e 45 83
e 45 85
e 45 86
e 45 88
e 45 91
e 45 92
e 45 98
e 46 49
e 46 51
e 46 52
e 46 57
e 46 58
e 46 69
e 46 72
e 46 75
e 46 83
e 46 85
e 46 86
e 46 89
e 46 92
e 46 93
e 47 56
e 47 57
e 47 74
e 47 81
e 47 86
e 47 87
e 47 89
e 48 51
e 48 54
e 48 60
e 48 69
e 48 70
e 48 75
e 48 78
e 48 81
e 48 82
e 48 87
e 48 88
e 48 89
e 48 92
e 48 100
e 49 61
e 49 81
e 49 82
e 49 83
e 49 85
e 49 88
e 49 90
e 49 91
e 49 92
e 50 54
e 50 62
e 50 70
e 50 71
e 50 74
e 50 75
e 50 78
e 50 80
e 50 83
e 50 85
e 50 89
e 50 91
e 50 92
e 50 97
e 51 52
e 51 55
e 51 58
e 51 68
e 51 69
e 51 70
e 51 80
e 51 83
e 51 84
e 51 85
e 51 86
e 51 88
e 51 89
e 51 96
e 51 99
e 52 54
e 52 55
e 52 58
e 52 65
e 52 82
e 52 83
e 52 87
e 52 88
e 52 90
e 52 91
e 52 100
e 53 54
e 53 56
e 53 59
e 53 68
e 53 69
e 53 73
e 53 75
e 53 76
e 53 78
e 53 85
e 53 88
e 53 89
e 53 92
e 53 93
e 54 69
e 54 72
e 54 78
e 54 81
e 54 82
e 54 84
e 54 85
e 54 89
e 54 91
e 55 57
e 55 61
e 55 65
e 55 68
e 55 72
e 55 74
e 55 78
e 55 80
e 55 83
e 55 85
e 55 86
e 55 91
e 56 57
e 56 58
e 56 61
e 56 73
e 56 79
e 56 82
e 56 86
e 56 92
e 56 97
e 56 100
e 57 63
e 57 66
e 57 67
e 57 68
e 57 69
e 57 71
e 57 72
e 57 77
e 57 80
e 57 81
e 57 84
e 57 87
e 57 91
e 57 95
e 58 60
e 58 63
e 58 70
e 58 90
e 58 91
e 58 92
e 59 60
e 59 65
e 59 66
e 59 67
e 59 76
e 59 81
e 59 83
e 59 87
e 59 90
e 59 92
e 59 94
e 59 97
e 59 100
e 60 71
e 60 84
e 60 87
e 60 88
e 60 91
e 60 94
e 60 96
e 60 97
e 61 62
e 61 64
e 61 74
e 61 76
e 61 81
e 61 82
e 61 85
e 61 86
e 61 87
e 61 88
e 61 89
e 61 90
e 61 91
e 61 92
e 61 95
e 61 99
e 62 64
e 62 74
e 62 75
e 62 82
e 62 83
e 62 85
e 62 87
e 62 89
e 62 98
e 62 99
e 62 100
e 63 70
e 63 72
e 63 76
e 63 79
e 63 81
e 63 85
e 63 87
e 63 88
e 63 89
e 63 90
e 63 98
e 63 99
e 63 100
e 64 68
e 64 71
e 64 75
e 64 79
e 64 80
e 64 81
e 64 83
e 64 89
e 64 90
e 64 93
e 64 98
e 65 66
e 65 82
e 65 88
e 65 90
e 65 91
e 65 98
e 65 100
e 66 71
e 66 73
e 66 74
e 66 81
e 66 82
e 66 86
e 66 88
e 66 100
e 67 68
e 67 75
e 67 76
e 67 83
e 67 89
e 67 91
e 67 98
e 68 71
e 68 72
e 68 75
e 68 81
e 68 85
e 68 89
e 68 90
e 68 98
e 69 78
e 69 89
e 69 94
e 70 81
e 70 89
e 70 91
e 70 92
e 71 75
e 71 80
e 71 81
e 71 85
e 71 89
e 71 91
e 71 98
e 72 74
e 72 76
e 72 78
e 72 79
e 72 85
e 72 86
e 72 92
e 73 81
e 73 82
e 73 83
e 73 86
e 73 87
e 73 89
e 73 90
e 73 91
e 73 93
e 73 98
e 74 84
e 74 85
e 74 88
e 74 91
e 74 96
e 74 97
e 74 99
e 75 80
e 75 81
e 75 82
e 75 83
e 75 84
e 75 86
e 75 87
e 75 88
e 75 91
e 75 92
e 76 82
e 76 84
e 76 89
e 76 94
e 76 99
e 77 84
e 77 87
e 77 96
e 77 98
e 78 81
e 78 85
e 78 90
e 78 91
e 78 93
e 78 94
e 78 98
e 78 100
e 79 83
e 79 87
e 79 89
e 79 90
e 79 91
e 79 92
e 79 98
e 79 100
e 80 82
e 80 83
e 80 84
e 80 86
e 80 89
e 80 92
e 80 100
e 81 89
e 81 90
e 81 92
e 81 97
e 82 88
e 82 89
e 82 92
e 82 98
e 83 86
e 83 87
e 83 100
e 84 87
e 84 92
e 85 86
e 85 88
e 85 89
e 85 98
e 86 91
e 86 92
e 86 94
e 86 95
e 86 100
e 87 91
e 87 94
e 87 97
e 87 99
e 88 96
e 89 94
e 89 99
e 92 99
e 94 95
e 94 99
e 95 98
e 97 98
e 97 100
e 98 100
